NAME : P113112.51263.tour
COMMENT : Length = 51263
COMMENT : Found by LKH-3 [Keld Helsgaun] Tue Dec 17 14:07:02 2024
TYPE : TOUR
DIMENSION : 120
TOUR_SECTION
1
111
2
112
3
113
4
114
5
115
6
116
7
117
8
118
9
106
101
105
103
108
99
102
110
107
13
98
109
104
100
11
75
69
65
76
72
64
67
70
79
78
73
71
66
68
74
77
14
28
12
22
21
16
24
18
25
62
48
57
61
54
53
59
60
58
55
17
47
52
50
63
49
51
56
80
90
91
85
88
81
96
87
27
82
93
84
94
97
83
23
92
95
86
89
26
19
42
44
35
43
15
36
38
31
33
34
30
45
40
29
41
37
46
39
32
20
119
10
120
-1
EOF
